study/exp-portion-fine-grain-4v100/run-logs-backup-12-06/unsupervised_samgraph_cache_graphsage_kKHop2_papers100M_coll_cache_asymm_link_2_cache_rate_020_batch_size_2000_concurrent_impl_MPS.log
config:eval_tsp="2022-12-05 07:17:45"
config:arch=arch5
config:num_train_worker=3
config:num_sample_worker=1
config:sample_type=khop2
config:root_path=/nvme/graph-learning-copy/samgraph/
config:dataset=papers100M
config:pipeline=False
config:cache_policy=coll_cache_asymm_link
config:cache_percentage=0.2
config:num_epoch=4
config:batch_size=2000
config:num_hidden=256
config:max_sampling_jobs=1
config:max_copying_jobs=1
config:barriered_epoch=1
config:presample_epoch=2
config:omp_thread_num=13
config:unsupervised=True
config:amp=True
config:rolling=0
config:fanout=[25, 10]
config:lr=0.003
config:dropout=0.5
config:single_gpu=False
config:max_num_step=1000
config:validate_configs=False
config:report_acc=0
config:dataset_path=/nvme/graph-learning-copy/samgraph/papers100M
config:torch_thread_num=13
config:train_workers=['cuda:0', 'cuda:1', 'cuda:2']
config:sample_workers=['cuda:3']
config:num_fanout=2
config:num_layer=2
config:_run_mode=RunMode.FGNN
config:_log_level=warn
config:_profile_level=3
config:_empty_feat=0
config:_arch=5
config:_sample_type=5
config:_cache_policy=13
test_result:init:input_scale_factor=1.13512
0 :  {link #0 : 1}, {link #1 : 2},
1 :  {link #0 : 2}, {link #1 : 0},
2 :  {link #0 : 0}, {link #1 : 1},
0 :  {link #0 : 1}, {link #1 : 2},
1 :  {link #0 : 2}, {link #1 : 0},
2 :  {link #0 : 0}, {link #1 : 1},
0 :  {link #0 : 1}, {link #1 : 2},
1 :  {link #0 : 2}, {link #1 : 0},
2 :  {link #0 : 0}, {link #1 : 1},
Set parameter WLSAccessID
Set parameter WLSSecret
Set parameter LicenseID
Set parameter TimeLimit to value 200
Set parameter MIPGap to value 0.05
Set parameter GomoryPasses to value 0
Set parameter Aggregate to value 0
Set parameter LogFile to value "cppsolver.log"
Set parameter Threads to value 26
Academic license - for non-commercial use only - registered to xiaoniu.sxn@sjtu.edu.cn
Gurobi Optimizer version 9.5.1 build v9.5.1rc2 (linux64)
Thread count: 40 physical cores, 80 logical processors, using up to 26 threads
Academic license - for non-commercial use only - registered to xiaoniu.sxn@sjtu.edu.cn
Optimize a model with 21435 rows, 10204 columns and 64275 nonzeros
Model fingerprint: 0x38bebc65
Variable types: 4 continuous, 10200 integer (10200 binary)
Coefficient statistics:
  Matrix range     [5e-04, 4e+02]
  Objective range  [1e+00, 1e+00]
  Bounds range     [1e+00, 1e+00]
  RHS range        [1e+00, 5e+02]
Found heuristic solution: objective 2.000000e+09
Presolve removed 12242 rows and 0 columns
Presolve time: 0.09s
Presolved: 9193 rows, 10204 columns, 37753 nonzeros
Found heuristic solution: objective 18533.195185
Variable types: 4 continuous, 10200 integer (10200 binary)

Root relaxation: objective 1.396758e+03, 8597 iterations, 0.23 seconds (0.20 work units)

    Nodes    |    Current Node    |     Objective Bounds      |     Work
 Expl Unexpl |  Obj  Depth IntInf | Incumbent    BestBd   Gap | It/Node Time

     0     0 1396.75753    0   29 18533.1952 1396.75753  92.5%     -    0s
H    0     0                    1422.3900541 1396.75753  1.80%     -    0s

Explored 1 nodes (10629 simplex iterations) in 0.46 seconds (0.36 work units)
Thread count was 26 (of 80 available processors)

Solution count 3: 1422.39 18533.2 2e+09 

Optimal solution found (tolerance 5.00e-02)
Best objective 1.422390054081e+03, best bound 1.396757534338e+03, gap 1.8021%
coll_cache:optimal_local_rate=0.730451,0.733604,0.737476,
coll_cache:optimal_remote_rate=0.232559,0.229406,0.225534,
coll_cache:optimal_cpu_rate=0.0369901,0.0369901,0.0369901,
z=1422.39
test_result:init:feat_nbytes=56862697472
test_result:init:cache_nbytes=11286327296
test_result:init:feat_nbytes=56862697472
test_result:init:cache_nbytes=11374222336
test_result:init:feat_nbytes=56862697472
test_result:init:cache_nbytes=11357072384
[Train  Worker 1/3] Started with PID 87865(Tesla V100-SXM2-16GB)
[Train  Worker 1] run train for 4 epochs with 1002 steps
[Train  Worker 2/3] Started with PID 87867(Tesla V100-SXM2-16GB)
[Train  Worker 2] run train for 4 epochs with 1002 steps
[CUDA] cuda0: usage: 15.74 GB
[SAM] cuda0 data alloc        : 0.00 Bytes
[SAM] cuda0 workspace         : 534.50 MB
[SAM] cuda0 workspace reserve : 263.56 MB
[SAM] cuda0 total             : 534.50 MB
[Train  Worker 0/3] Started with PID 87863(Tesla V100-SXM2-16GB)
[Train  Worker 0] run train for 4 epochs with 1002 steps
Epoch 00000 | Epoch Time 4.8126 | Total Train Time(Profiler) 3.7758 | Copy Time 1.0071
[CUDA] cuda0: usage: 15.74 GB
[SAM] cuda0 data alloc        : 0.00 Bytes
[SAM] cuda0 workspace         : 534.50 MB
[SAM] cuda0 workspace reserve : 264.12 MB
[SAM] cuda0 total             : 534.50 MB
Epoch 00001 | Epoch Time 3.5650 | Total Train Time(Profiler) 2.5459 | Copy Time 0.9915
[CUDA] cuda0: usage: 15.74 GB
[SAM] cuda0 data alloc        : 0.00 Bytes
[SAM] cuda0 workspace         : 534.50 MB
[SAM] cuda0 workspace reserve : 264.01 MB
[SAM] cuda0 total             : 534.50 MB
Epoch 00002 | Epoch Time 3.5637 | Total Train Time(Profiler) 2.5379 | Copy Time 0.9924
[CUDA] cuda0: usage: 15.74 GB
[SAM] cuda0 data alloc        : 0.00 Bytes
[SAM] cuda0 workspace         : 534.50 MB
[SAM] cuda0 workspace reserve : 263.56 MB
[SAM] cuda0 total             : 534.50 MB
Epoch 00003 | Epoch Time 3.4188 | Total Train Time(Profiler) 2.3783 | Copy Time 1.0128
[Train  Worker 1] Avg Epoch Time 3.5159 | Train Total Time(Profiler) 2.4850 | Copy Time 1.0009
[Train  Worker 2] Avg Epoch Time 3.5158 | Train Total Time(Profiler) 2.4793 | Copy Time 1.0064
[Train  Worker 0] Avg Epoch Time 3.5158 | Train Total Time(Profiler) 2.4874 | Copy Time 0.9989
    [Step(average) Profiler Level 1 E3 S1001]
        L1  sample           0.001974 | send           0.000479
        L1  recv             0.000000 | copy           0.000000 | convert time 0.000000 | train  0.000000
        L1  feature nbytes 0.00 Bytes | label nbytes 0.00 Bytes
        L1  id nbytes      0.00 Bytes | graph nbytes 0.00 Bytes
        L1  miss nbytes    0.00 Bytes | remote nbytes 0.00 Bytes
        L1  num nodes          453505 | num samples      513783
    [Step(average) Profiler Level 2 E3 S1001]
        L2  shuffle     0.000082 | core sample  0.000560 | id remap        0.001151
        L2  graph copy  0.000000 | id copy      0.000000 | cache feat copy 0.000000
        L2  last layer sample time 0.000265 | size 44711.580506
    [Step(average) Profiler Level 3 E3 S1001]
        L3  khop sample coo  0.000320 | khop sort coo      0.000000 | khop count edge     0.000034 | khop compact edge 0.000157
        L3  walk sample coo  0.000000 | walk topk total    0.000000 | walk topk step1     0.000000 | walk topk step2   0.000000
        L3  walk topk step3  0.000000 | walk topk step4    0.000000 | walk topk step5     0.000000
        L3  walk topk step6  0.000000 | walk topk step7    0.000000
        L3  remap unique     0.000171 | remap populate     0.000989 | remap mapnode       0.000000 | remap mapedge     0.000175
        L3  cache get_index  0.000000 | cache copy_index   0.000000 | cache extract_miss  0.000000
        L3  cache copy_miss  0.000000 | cache combine_miss 0.000000 | cache combine cache 0.000000 | cache combine remote 0.000000
        L3  label extract  0.000000
    [Init Profiler Level 1]
        L1  init     3.0718 | sampler init    56.9311 | trainer init 0.0000
    [Init Profiler Level 2]
        L2  load ds         4.5579 | init queue          43.1890
        L2  presample      10.4359 | build interal ds     1.8178
        L2  build cache     0.0000
    [Init Profiler Level 3]
        L3  load dataset: mmap     3.0690 | copy         1.4889
        L3  dist queue: alloc      0.0007 | pin         43.1883 | push     0.0000
        L3  presample: init        0.5907
        L3  presample: sample      3.9968 | copy         0.3014
        L3  presample: count       4.3208 | sort         0.4352
        L3  presample: reset       0.0022 | get rank     0.0367
        L3  internal: cuda ctx     1.5238 | cuda stream     0.2843
[Sample Worker 0/1] Started with PID 87861(Tesla V100-SXM2-16GB)
[Sample Worker 0] run sample for 4 epochs with 1002 steps
[Sample Worker 0] Avg Sample Total Time 2.4676 | Sampler Total Time(Profiler) 2.4578
test_result:sample_time=1.9778
test_result:get_cache_miss_index_time=0.0000
test_result:enqueue_samples_time=0.4800
test_result:epoch_time:sample_total=2.4676
[CUDA] cuda0: usage: 15.74 GB
[SAM] cuda0 data alloc        : 0.00 Bytes
[SAM] cuda0 workspace         : 534.50 MB
[SAM] cuda0 workspace reserve : 263.56 MB
[SAM] cuda0 total             : 534.50 MB
    [Step(average) Profiler Level 1 E3 S1001]
        L1  sample           0.000000 | send           0.000000
        L1  recv             0.000584 | copy           0.003000 | convert time 0.000456 | train  0.006981
        L1  feature nbytes  221.44 MB | label nbytes   15.62 KB
        L1  id nbytes      0.00 Bytes | graph nbytes 0.00 Bytes
        L1  miss nbytes      11.12 MB | remote nbytes   50.46 MB
        L1  num nodes               0 | num samples           0
    [Step(average) Profiler Level 2 E3 S1001]
        L2  shuffle     0.000000 | core sample  0.000000 | id remap        0.000000
        L2  graph copy  0.000003 | id copy      0.000000 | cache feat copy 0.002413
        L2  last layer sample time 0.000000 | size 0.000000
    [Step(average) Profiler Level 3 E3 S1001]
        L3  khop sample coo  0.000000 | khop sort coo      0.000000 | khop count edge     0.000000 | khop compact edge 0.000000
        L3  walk sample coo  0.000000 | walk topk total    0.000000 | walk topk step1     0.000000 | walk topk step2   0.000000
        L3  walk topk step3  0.000000 | walk topk step4    0.000000 | walk topk step5     0.000000
        L3  walk topk step6  0.000000 | walk topk step7    0.000000
        L3  remap unique     0.000000 | remap populate     0.000000 | remap mapnode       0.000000 | remap mapedge     0.000000
        L3  cache get_index  0.000346 | cache copy_index   0.000000 | cache extract_miss  0.000000
        L3  cache copy_miss  0.000000 | cache combine_miss 0.001460 | cache combine cache 0.001377 | cache combine remote 0.000665
        L3  label extract  0.000014
    [Step(max) Profiler Level 1 E3 S1001]
        L1  sample           0.000000 | send           0.000000
        L1  recv             0.000000 | copy           0.000000 | convert time 0.000000 | train  0.000000
        L1  feature nbytes 0.00 Bytes | label nbytes 0.00 Bytes
        L1  id nbytes      0.00 Bytes | graph nbytes    4.07 MB
        L1  miss nbytes    0.00 Bytes | remote nbytes 0.00 Bytes
        L1  num nodes               0 | num samples           0
    [Step(max) Profiler Level 2 E3 S1001]
        L2  shuffle     0.000000 | core sample  0.000000 | id remap        0.000000
        L2  graph copy  0.000000 | id copy      0.000000 | cache feat copy 0.000000
        L2  last layer sample time 0.000000 | size 0.000000
    [Step(max) Profiler Level 3 E3 S1001]
        L3  khop sample coo  0.000000 | khop sort coo      0.000000 | khop count edge     0.000000 | khop compact edge 0.000000
        L3  walk sample coo  0.000000 | walk topk total    0.000000 | walk topk step1     0.000000 | walk topk step2   0.000000
        L3  walk topk step3  0.000000 | walk topk step4    0.000000 | walk topk step5     0.000000
        L3  walk topk step6  0.000000 | walk topk step7    0.000000
        L3  remap unique     0.000000 | remap populate     0.000000 | remap mapnode       0.000000 | remap mapedge     0.000000
        L3  cache get_index  0.000000 | cache copy_index   0.000000 | cache extract_miss  0.000000
        L3  cache copy_miss  0.000000 | cache combine_miss 0.000000 | cache combine cache 0.000000 | cache combine remote 0.000000
        L3  label extract  0.000000
    [Step(min) Profiler Level 1 E3 S1001]
        L1  sample           0.000000 | send           0.000000
        L1  recv             0.000000 | copy           0.000000 | convert time 0.000000 | train  0.000000
        L1  feature nbytes 0.00 Bytes | label nbytes 0.00 Bytes
        L1  id nbytes      0.00 Bytes | graph nbytes    3.82 MB
        L1  miss nbytes    0.00 Bytes | remote nbytes 0.00 Bytes
        L1  num nodes               0 | num samples           0
    [Step(min) Profiler Level 2 E3 S1001]
        L2  shuffle     0.000000 | core sample  0.000000 | id remap        0.000000
        L2  graph copy  0.000000 | id copy      0.000000 | cache feat copy 0.000000
        L2  last layer sample time 0.000000 | size 0.000000
    [Step(min) Profiler Level 3 E3 S1001]
        L3  khop sample coo  0.000000 | khop sort coo      0.000000 | khop count edge     0.000000 | khop compact edge 0.000000
        L3  walk sample coo  0.000000 | walk topk total    0.000000 | walk topk step1     0.000000 | walk topk step2   0.000000
        L3  walk topk step3  0.000000 | walk topk step4    0.000000 | walk topk step5     0.000000
        L3  walk topk step6  0.000000 | walk topk step7    0.000000
        L3  remap unique     0.000000 | remap populate     0.000000 | remap mapnode       0.000000 | remap mapedge     0.000000
        L3  cache get_index  0.000000 | cache copy_index   0.000000 | cache extract_miss  0.000000
        L3  cache copy_miss  0.000000 | cache combine_miss 0.000000 | cache combine cache 0.000000 | cache combine remote 0.000000
        L3  label extract  0.000000
    [Init Profiler Level 1]
        L1  init     3.0718 | sampler init     0.0000 | trainer init 139.9531
    [Init Profiler Level 2]
        L2  load ds         3.0690 | init queue          43.1527
        L2  presample       0.0000 | build interal ds     1.5236
        L2  build cache    95.2718
    [Init Profiler Level 3]
        L3  load dataset: mmap     3.0690 | copy         0.0000
        L3  dist queue: alloc      0.0007 | pin         43.1520 | push     0.0000
        L3  presample: init        0.0000
        L3  presample: sample      0.0000 | copy         0.0000
        L3  presample: count       0.0000 | sort         0.0000
        L3  presample: reset       0.0000 | get rank     0.0000
        L3  internal: cuda ctx     1.5236 | cuda stream     0.0001
|===========================================================================|
|                  PyTorch CUDA memory summary, device ID 0                 |
|---------------------------------------------------------------------------|
|            CUDA OOMs: 0            |        cudaMalloc retries: 0         |
|===========================================================================|
|        Metric         | Cur Usage  | Peak Usage | Tot Alloc  | Tot Freed  |
|---------------------------------------------------------------------------|
| Allocated memory      |   11799 KB |  253255 KB |    1091 GB |    1091 GB |
|       from large pool |    7775 KB |  250559 KB |    1081 GB |    1081 GB |
|       from small pool |    4024 KB |    5313 KB |      10 GB |      10 GB |
|---------------------------------------------------------------------------|
| Active memory         |   11800 KB |  253255 KB |    1091 GB |    1091 GB |
|       from large pool |    7775 KB |  250559 KB |    1081 GB |    1081 GB |
|       from small pool |    4024 KB |    5313 KB |      10 GB |      10 GB |
|---------------------------------------------------------------------------|
| GPU reserved memory   |  413696 KB |  413696 KB |  413696 KB |       0 B  |
|       from large pool |  407552 KB |  407552 KB |  407552 KB |       0 B  |
|       from small pool |    6144 KB |    6144 KB |    6144 KB |       0 B  |
|---------------------------------------------------------------------------|
| Non-releasable memory |   78312 KB |  296443 KB |    1003 GB |    1003 GB |
|       from large pool |   76192 KB |  294369 KB |     993 GB |     993 GB |
|       from small pool |    2119 KB |    3391 KB |      10 GB |      10 GB |
|---------------------------------------------------------------------------|
| Allocations           |      39    |      56    |  183068    |  183029    |
|       from large pool |       3    |      14    |   65464    |   65461    |
|       from small pool |      36    |      45    |  117604    |  117568    |
|---------------------------------------------------------------------------|
| Active allocs         |      40    |      56    |  183068    |  183028    |
|       from large pool |       3    |      14    |   65464    |   65461    |
|       from small pool |      37    |      45    |  117604    |  117567    |
|---------------------------------------------------------------------------|
| GPU reserved segments |      12    |      12    |      12    |       0    |
|       from large pool |       9    |       9    |       9    |       0    |
|       from small pool |       3    |       3    |       3    |       0    |
|---------------------------------------------------------------------------|
| Non-releasable allocs |      15    |      26    |   71856    |   71841    |
|       from large pool |       6    |      13    |   41104    |   41098    |
|       from small pool |       9    |      16    |   30752    |   30743    |
|---------------------------------------------------------------------------|
| Oversize allocations  |       0    |       0    |       0    |       0    |
|---------------------------------------------------------------------------|
| Oversize GPU segments |       0    |       0    |       0    |       0    |
|===========================================================================|

test_result:epoch_time:copy_time=0.9989
test_result:convert_time=0.1483
test_result:train_time=2.3391
test_result:epoch_time:train_total=2.4874
test_result:cache_percentage=0.2000
test_result:cache_hit_rate=1.0000
test_result:run_time=25.2387
